data;

param num_top:=6;

#nodes and edges of the physical network
param n := 10;

set E := (1,2) (1,3) (1,7) (2,4) (2,7) (3,5) (4,8) (5,6) (5,7) (6,7) (6,9) (7,8) (7,9) (8,10) (9,10) ;

#nodes and edges of the virtual networks
set Nl[1] := 8 1 5 9 ;
set Nl[2] := 7 9 8 4 ;
set Nl[3] := 5 6 1 2 4 ;
set Nl[4] := 1 8 4 5 2 ;
set Nl[5] := 8 3 1 7 ;
set Nl[6] := 10 1 3 7 8 ;

set El[1] := (1,8) (1,5) (5,9) (8,9) ;
set El[2] := (7,9) (8,9) (4,8) (4,7) (7,8) (4,9) ;
set El[3] := (5,6) (1,6) (1,2) (2,4) (4,5) ;
set El[4] := (1,8) (4,8) (4,5) (2,5) (1,2) (1,5) (2,4) (1,4) (5,8) (2,8) ;
set El[5] := (3,8) (1,3) (1,7) (7,8) (1,8) (3,7) ;
set El[6] := (1,10) (1,3) (3,7) (7,8) (8,10) ;
